
Gurobi 10.0.1 (win64) logging started Fri May 19 11:39:11 2023

Set parameter LogFile to value "results/log/PlasticInjection_deadline.log"
Gurobi Optimizer version 10.0.1 build v10.0.1rc0 (win64)

CPU model: AMD Ryzen 7 3700X 8-Core Processor, instruction set [SSE2|AVX|AVX2]
Thread count: 8 physical cores, 16 logical processors, using up to 16 threads

Optimize a model with 1282 rows, 5062 columns and 4887 nonzeros
Model fingerprint: 0x89beb3b2
Variable types: 0 continuous, 5062 integer (4911 binary)
Coefficient statistics:
  Matrix range     [1e+00, 3e+06]
  Objective range  [1e+00, 1e+00]
  Bounds range     [1e+00, 1e+00]
  RHS range        [1e+00, 1e+07]
Presolve removed 389 rows and 4544 columns
Presolve time: 0.40s
Presolved: 893 rows, 518 columns, 3815 nonzeros
Variable types: 0 continuous, 518 integer (382 binary)
Found heuristic solution: objective 121239.00000
Found heuristic solution: objective 76598.000000

Root relaxation: objective 4.950800e+04, 83 iterations, 0.00 seconds (0.00 work units)

    Nodes    |    Current Node    |     Objective Bounds      |     Work
 Expl Unexpl |  Obj  Depth IntInf | Incumbent    BestBd   Gap | It/Node Time

     0     0 49508.0000    0   19 76598.0000 49508.0000  35.4%     -    0s
H    0     0                    57108.000000 49508.0000  13.3%     -    0s
H    0     0                    56603.000000 49508.0000  12.5%     -    0s
H    0     0                    56348.000000 49508.0000  12.1%     -    0s
     0     0 50390.0000    0   33 56348.0000 50390.0000  10.6%     -    0s
H    0     0                    56070.000000 50390.0000  10.1%     -    0s
     0     0 50390.0000    0   32 56070.0000 50390.0000  10.1%     -    0s
     0     0 50390.0000    0   35 56070.0000 50390.0000  10.1%     -    0s
     0     0 50390.0000    0   36 56070.0000 50390.0000  10.1%     -    0s
     0     0 50390.0000    0   30 56070.0000 50390.0000  10.1%     -    0s
     0     0 50390.0000    0   36 56070.0000 50390.0000  10.1%     -    0s
H    0     0                    55548.000000 50390.0000  9.29%     -    0s
     0     0 50390.0000    0   24 55548.0000 50390.0000  9.29%     -    0s
     0     0 50390.0000    0   26 55548.0000 50390.0000  9.29%     -    0s
H    0     0                    55169.000000 50390.0000  8.66%     -    0s
     0     0 50390.0000    0   40 55169.0000 50390.0000  8.66%     -    0s
     0     0 50390.0000    0   46 55169.0000 50390.0000  8.66%     -    0s
     0     0 50390.0000    0   33 55169.0000 50390.0000  8.66%     -    0s
     0     0 50390.0000    0   28 55169.0000 50390.0000  8.66%     -    0s
H    0     0                    55130.000000 50390.0000  8.60%     -    0s
H 1118   647                    55049.000000 50993.6334  7.37%   6.8    1s
H 2747  1191                    54771.000000 51340.0259  6.26%   5.4    1s
H 4707  1599                    54718.000000 51721.2722  5.48%   6.1    1s
 40878 13466 54416.0804   41   10 54718.0000 53143.5502  2.88%   7.5    5s
 50392 16923 53221.0000   31   38 54718.0000 53221.0000  2.74%   7.8   13s
 59235 18135 54536.0000   41    8 54718.0000 53514.0932  2.20%   8.1   15s
 107544 19202 54442.8336   47   20 54718.0000 53890.1304  1.51%   8.2   20s
 155327 27957 54465.7407   52   18 54718.0000 54031.8356  1.25%   8.2   25s
 187941 31808 54252.6469   51   13 54718.0000 54103.0525  1.12%   8.2   30s
 227128 34325 54586.5636   56   11 54718.0000 54188.4902  0.97%   8.2   35s
 256139 34548 54557.7266   60    4 54718.0000 54245.1043  0.86%   8.2   40s
 285003 33784 54483.5001   57   17 54718.0000 54295.4425  0.77%   8.3   45s
 310517 31949 54630.1646   61   11 54718.0000 54338.4278  0.69%   8.2   50s
 330666 29771     cutoff   45      54718.0000 54375.1241  0.63%   8.2   55s
 352529 26240 54611.6076   59    4 54718.0000 54416.5607  0.55%   8.1   60s
 371623 22415     cutoff   50      54718.0000 54454.6032  0.48%   8.1   65s
 392072 16416 54688.2350   52   17 54718.0000 54505.2127  0.39%   8.1   70s
 413956  5840 54669.8243   54   10 54718.0000 54599.3392  0.22%   8.2   75s

Cutting planes:
  Learned: 1
  Implied bound: 2
  Flow cover: 30
  Relax-and-lift: 1

Explored 423172 nodes (3453168 simplex iterations) in 76.50 seconds (36.23 work units)
Thread count was 16 (of 16 available processors)

Solution count 10: 54718 54771 55049 ... 57108

Optimal solution found (tolerance 1.00e-04)
Best objective 5.471800000000e+04, best bound 5.471800000000e+04, gap 0.0000%
Warning: variable name "y[job:0, stage:0, machine:1]" has a space
Warning: constraint name "precedence between 1,0 to 0,0 if x_[j,l,h,z,i]=1" has a space
Warning: to let Gurobi read it back, use rlp format
Warning: variable name "y[job:0, stage:0, machine:1]" has a space
Warning: constraint name "precedence between 1,0 to 0,0 if x_[j,l,h,z,i]=1" has a space
Warning: default variable names used to write mps file
Warning: default constraint names used to write mps file
Warning: variable name "y[job:0, stage:0, machine:1]" has a space
Warning: default variable names used to write solution file
